p edge 100 990
e 1 13
e 1 15
e 1 26
e 1 32
e 1 34
e 1 36
e 1 39
e 1 40
e 1 44
e 1 49
e 1 58
e 1 71
e 1 78
e 1 82
e 1 84
e 1 90
e 1 92
e 1 95
e 2 13
e 2 17
e 2 20
e 2 34
e 2 36
e 2 37
e 2 39
e 2 43
e 2 48
e 2 53
e 2 60
e 2 64
e 2 66
e 2 69
e 2 70
e 2 73
e 2 75
e 2 76
e 2 77
e 2 88
e 2 89
e 3 12
e 3 21
e 3 36
e 3 38
e 3 39
e 3 43
e 3 54
e 3 57
e 3 60
e 3 64
e 3 72
e 3 77
e 3 78
e 3 88
e 3 89
e 3 90
e 3 95
e 3 99
e 4 7
e 4 18
e 4 20
e 4 26
e 4 29
e 4 32
e 4 36
e 4 50
e 4 56
e 4 57
e 4 62
e 4 66
e 4 67
e 4 80
e 4 81
e 4 82
e 4 84
e 4 90
e 4 98
e 4 99
e 4 100
e 5 11
e 5 14
e 5 16
e 5 19
e 5 21
e 5 23
e 5 31
e 5 37
e 5 38
e 5 46
e 5 48
e 5 51
e 5 63
e 5 64
e 5 71
e 5 72
e 5 79
e 5 81
e 5 91
e 5 97
e 5 98
e 5 99
e 6 10
e 6 12
e 6 18
e 6 31
e 6 36
e 6 50
e 6 52
e 6 56
e 6 68
e 6 76
e 6 77
e 6 80
e 6 81
e 6 87
e 6 97
e 7 10
e 7 14
e 7 15
e 7 16
e 7 20
e 7 23
e 7 27
e 7 30
e 7 32
e 7 34
e 7 36
e 7 38
e 7 39
e 7 40
e 7 64
e 7 76
e 7 81
e 7 82
e 7 89
e 8 11
e 8 24
e 8 30
e 8 36
e 8 43
e 8 51
e 8 52
e 8 54
e 8 58
e 8 65
e 8 69
e 9 16
e 9 18
e 9 19
e 9 31
e 9 33
e 9 35
e 9 39
e 9 43
e 9 47
e 9 49
e 9 59
e 9 60
e 9 64
e 9 66
e 9 71
e 9 72
e 9 87
e 9 95
e 9 98
e 10 15
e 10 19
e 10 20
e 10 21
e 10 35
e 10 37
e 10 38
e 10 40
e 10 43
e 10 51
e 10 52
e 10 61
e 10 65
e 10 71
e 10 76
e 10 77
e 10 80
e 10 81
e 10 91
e 10 96
e 11 14
e 11 18
e 11 22
e 11 24
e 11 28
e 11 29
e 11 32
e 11 34
e 11 38
e 11 40
e 11 43
e 11 51
e 11 58
e 11 63
e 11 65
e 11 72
e 11 84
e 11 89
e 11 90
e 11 91
e 11 94
e 11 98
e 12 13
e 12 17
e 12 23
e 12 28
e 12 29
e 12 32
e 12 40
e 12 44
e 12 50
e 12 52
e 12 57
e 12 61
e 12 62
e 12 70
e 12 78
e 12 82
e 12 85
e 12 87
e 12 89
e 12 90
e 12 91
e 12 94
e 12 95
e 12 100
e 13 16
e 13 19
e 13 24
e 13 25
e 13 31
e 13 33
e 13 34
e 13 40
e 13 42
e 13 43
e 13 44
e 13 48
e 13 64
e 13 71
e 13 73
e 13 76
e 13 80
e 13 84
e 13 92
e 13 95
e 13 100
e 14 18
e 14 25
e 14 31
e 14 36
e 14 43
e 14 55
e 14 71
e 14 89
e 14 95
e 15 16
e 15 18
e 15 21
e 15 22
e 15 24
e 15 25
e 15 28
e 15 30
e 15 33
e 15 34
e 15 36
e 15 41
e 15 42
e 15 47
e 15 51
e 15 57
e 15 61
e 15 62
e 15 67
e 15 70
e 15 71
e 15 73
e 15 74
e 15 76
e 15 78
e 15 84
e 15 93
e 16 27
e 16 30
e 16 33
e 16 40
e 16 43
e 16 44
e 16 47
e 16 48
e 16 59
e 16 63
e 16 81
e 16 82
e 16 83
e 16 89
e 16 96
e 16 98
e 17 21
e 17 23
e 17 28
e 17 30
e 17 40
e 17 41
e 17 46
e 17 48
e 17 49
e 17 50
e 17 56
e 17 71
e 17 75
e 17 77
e 17 84
e 17 87
e 17 89
e 17 91
e 17 93
e 17 96
e 18 21
e 18 23
e 18 25
e 18 29
e 18 49
e 18 55
e 18 57
e 18 61
e 18 65
e 18 69
e 18 72
e 18 80
e 18 81
e 18 86
e 18 87
e 19 20
e 19 22
e 19 24
e 19 26
e 19 29
e 19 38
e 19 44
e 19 47
e 19 51
e 19 53
e 19 59
e 19 74
e 19 76
e 19 79
e 19 81
e 19 82
e 19 84
e 19 86
e 19 87
e 19 95
e 19 97
e 20 23
e 20 25
e 20 30
e 20 35
e 20 45
e 20 53
e 20 58
e 20 64
e 20 67
e 20 68
e 20 73
e 20 75
e 20 81
e 20 85
e 20 86
e 20 88
e 20 92
e 20 95
e 21 25
e 21 32
e 21 36
e 21 39
e 21 45
e 21 47
e 21 49
e 21 63
e 21 65
e 21 68
e 21 69
e 21 80
e 21 84
e 21 94
e 22 27
e 22 35
e 22 44
e 22 45
e 22 52
e 22 54
e 22 57
e 22 63
e 22 65
e 22 79
e 22 90
e 22 92
e 22 95
e 22 97
e 22 100
e 23 32
e 23 49
e 23 53
e 23 60
e 23 62
e 23 71
e 23 75
e 23 78
e 23 79
e 23 84
e 23 88
e 23 92
e 23 95
e 24 26
e 24 31
e 24 34
e 24 42
e 24 44
e 24 50
e 24 64
e 24 72
e 24 77
e 25 28
e 25 30
e 25 36
e 25 51
e 25 56
e 25 58
e 25 60
e 25 66
e 25 69
e 25 71
e 25 84
e 25 92
e 26 30
e 26 37
e 26 48
e 26 58
e 26 59
e 26 60
e 26 67
e 26 76
e 26 81
e 26 84
e 26 90
e 26 95
e 26 99
e 27 31
e 27 38
e 27 41
e 27 43
e 27 54
e 27 57
e 27 59
e 27 64
e 27 69
e 27 71
e 27 72
e 27 73
e 27 80
e 27 85
e 27 87
e 27 90
e 27 93
e 27 100
e 28 46
e 28 52
e 28 59
e 28 65
e 28 71
e 28 87
e 28 91
e 28 94
e 28 99
e 29 32
e 29 33
e 29 39
e 29 49
e 29 62
e 29 69
e 29 74
e 29 96
e 30 33
e 30 39
e 30 41
e 30 43
e 30 44
e 30 50
e 30 53
e 30 55
e 30 56
e 30 61
e 30 63
e 30 67
e 30 72
e 30 85
e 30 86
e 30 99
e 31 33
e 31 39
e 31 41
e 31 54
e 31 55
e 31 56
e 31 57
e 31 60
e 31 62
e 31 67
e 31 68
e 31 77
e 31 99
e 32 37
e 32 41
e 32 54
e 32 68
e 32 78
e 32 79
e 32 80
e 32 85
e 32 97
e 33 36
e 33 43
e 33 45
e 33 46
e 33 52
e 33 54
e 33 57
e 33 59
e 33 64
e 33 68
e 33 79
e 33 91
e 33 98
e 33 99
e 34 40
e 34 45
e 34 46
e 34 54
e 34 58
e 34 59
e 34 60
e 34 64
e 34 68
e 34 71
e 34 73
e 34 74
e 34 80
e 34 88
e 34 89
e 34 92
e 35 38
e 35 41
e 35 43
e 35 52
e 35 55
e 35 58
e 35 59
e 35 63
e 35 66
e 35 73
e 35 75
e 35 82
e 35 83
e 35 86
e 35 88
e 35 93
e 35 97
e 35 98
e 36 41
e 36 46
e 36 51
e 36 61
e 36 64
e 36 66
e 36 75
e 36 77
e 36 87
e 36 89
e 36 94
e 37 46
e 37 55
e 37 62
e 37 65
e 37 80
e 37 86
e 37 92
e 37 95
e 37 96
e 37 100
e 38 39
e 38 44
e 38 46
e 38 51
e 38 54
e 38 55
e 38 64
e 38 66
e 38 71
e 38 72
e 38 82
e 38 85
e 38 87
e 38 96
e 39 43
e 39 45
e 39 46
e 39 54
e 39 57
e 39 58
e 39 74
e 39 76
e 39 78
e 39 83
e 39 84
e 40 42
e 40 52
e 40 73
e 40 74
e 40 75
e 40 82
e 40 83
e 40 88
e 41 43
e 41 44
e 41 53
e 41 58
e 41 61
e 41 76
e 41 83
e 41 84
e 41 87
e 41 93
e 42 46
e 42 52
e 42 55
e 42 60
e 42 61
e 42 64
e 42 67
e 42 68
e 42 71
e 42 74
e 42 76
e 42 84
e 42 89
e 42 90
e 43 47
e 43 55
e 43 56
e 43 57
e 43 60
e 43 61
e 43 62
e 43 63
e 43 64
e 43 68
e 43 78
e 43 79
e 43 96
e 43 97
e 43 98
e 43 100
e 44 47
e 44 51
e 44 55
e 44 60
e 44 61
e 44 72
e 44 83
e 44 98
e 44 99
e 45 50
e 45 53
e 45 54
e 45 57
e 45 60
e 45 61
e 45 62
e 45 65
e 45 67
e 45 69
e 45 73
e 45 91
e 45 97
e 45 100
e 46 51
e 46 54
e 46 64
e 46 67
e 46 71
e 46 72
e 46 75
e 46 78
e 46 82
e 46 84
e 46 93
e 46 94
e 46 96
e 47 48
e 47 65
e 47 66
e 47 70
e 47 78
e 47 79
e 47 80
e 47 85
e 47 86
e 47 89
e 47 90
e 47 91
e 47 100
e 48 52
e 48 56
e 48 75
e 48 79
e 48 80
e 48 87
e 48 93
e 48 94
e 48 96
e 48 99
e 49 54
e 49 56
e 49 71
e 49 82
e 49 90
e 49 93
e 49 95
e 49 98
e 50 55
e 50 62
e 50 65
e 50 68
e 50 71
e 50 74
e 50 78
e 50 79
e 50 83
e 50 86
e 50 87
e 50 90
e 50 91
e 50 92
e 51 52
e 51 55
e 51 66
e 51 67
e 51 72
e 51 73
e 51 82
e 51 90
e 51 92
e 51 100
e 52 62
e 52 63
e 52 64
e 52 65
e 52 67
e 52 68
e 52 83
e 52 93
e 52 95
e 52 96
e 53 55
e 53 59
e 53 60
e 53 63
e 53 82
e 53 84
e 53 91
e 53 99
e 54 64
e 54 66
e 54 70
e 54 78
e 54 82
e 54 89
e 54 95
e 54 99
e 55 61
e 55 68
e 55 74
e 55 76
e 55 81
e 55 88
e 55 89
e 55 90
e 55 92
e 55 94
e 55 97
e 55 100
e 56 58
e 56 70
e 56 72
e 56 74
e 56 76
e 56 81
e 56 82
e 56 90
e 56 93
e 56 97
e 56 99
e 57 61
e 57 64
e 57 66
e 57 74
e 57 80
e 57 84
e 57 100
e 58 65
e 58 80
e 58 81
e 58 83
e 58 86
e 58 89
e 58 95
e 59 61
e 59 63
e 59 65
e 59 67
e 59 72
e 59 73
e 59 74
e 59 79
e 59 80
e 59 81
e 59 94
e 60 88
e 60 89
e 60 90
e 60 100
e 61 66
e 61 69
e 61 70
e 61 72
e 61 73
e 61 76
e 61 80
e 61 82
e 61 83
e 61 86
e 61 88
e 61 95
e 61 96
e 61 98
e 62 63
e 62 66
e 62 74
e 62 75
e 62 78
e 62 81
e 62 87
e 62 99
e 63 65
e 63 67
e 63 68
e 63 82
e 63 90
e 63 100
e 64 66
e 64 72
e 64 74
e 64 76
e 64 80
e 64 82
e 64 83
e 64 93
e 64 100
e 65 69
e 65 71
e 65 77
e 65 83
e 65 84
e 65 90
e 65 91
e 65 92
e 66 69
e 66 71
e 66 79
e 66 92
e 67 68
e 67 79
e 67 91
e 67 92
e 68 69
e 68 73
e 68 81
e 68 82
e 68 86
e 68 96
e 68 98
e 68 99
e 69 72
e 69 78
e 69 85
e 69 97
e 70 77
e 70 81
e 70 85
e 70 86
e 70 94
e 70 98
e 71 72
e 71 75
e 71 78
e 71 81
e 71 85
e 71 88
e 71 89
e 71 91
e 71 96
e 71 97
e 71 99
e 71 100
e 72 75
e 72 81
e 72 88
e 72 97
e 72 100
e 73 75
e 73 85
e 73 89
e 73 90
e 73 91
e 74 80
e 74 82
e 74 94
e 74 95
e 75 81
e 75 87
e 75 90
e 75 91
e 76 83
e 76 93
e 76 98
e 77 79
e 77 82
e 77 95
e 77 100
e 78 85
e 78 87
e 78 90
e 78 93
e 78 94
e 79 80
e 79 92
e 79 99
e 80 83
e 80 87
e 80 90
e 80 91
e 80 100
e 81 84
e 81 87
e 81 88
e 81 89
e 81 90
e 82 91
e 82 93
e 83 86
e 83 97
e 84 87
e 84 89
e 84 97
e 85 92
e 85 100
e 86 87
e 86 90
e 86 94
e 86 95
e 87 88
e 88 92
e 88 99
e 89 97
e 90 94
e 91 94
e 91 98
e 92 98
e 92 100
e 93 95
e 93 98
e 93 100
e 95 98
e 96 97
